; benchmark generated from python API
(set-info :status unknown)
(declare-fun x_months () Int)
(declare-fun x_beta () Int)
(assert
 (<= (- 1202) x_months))
(assert
 (>= 1209 x_months))
(assert
 (>= x_beta 0))
(assert
 (let ((?x3983 (+ x_months 24003)))
 (let ((?x2418 (- ?x3983 (* (div (- ?x3983 1) 12) 12))))
 (let ((?x2634 (ite (or (= ?x2418 4) (= ?x2418 6) (= ?x2418 9) (= ?x2418 11)) 30 31)))
 (let (($x1490 (and (= (mod (div (- ?x3983 1) 12) 4) 0) (and (distinct (mod (div (- ?x3983 1) 12) 100) 0) true))))
 (let ((?x1460 (ite (or $x1490 (= (mod (div (- ?x3983 1) 12) 400) 0)) 29 28)))
 (< x_beta (ite (= ?x2418 2) ?x1460 ?x2634))))))))
(assert
 (let (($x299 (and (= x_months (- (+ (* 2020 12) 2) 24003)) (<= 27 x_beta))))
 (or (> x_months (- (+ (* 2020 12) 2) 24003)) $x299)))
(assert
 (let (($x3737 (and (= x_months (- (+ (* 2020 12) 3) 24003)) (>= 0 x_beta))))
 (or (< x_months (- (+ (* 2020 12) 3) 24003)) $x3737)))
(assert
 (let ((?x2330 (+ x_beta 1)))
(let ((?x4141 (+ (+ x_months 0) 24003)))
(let ((?x4035 (- ?x4141 (* (div (- ?x4141 1) 12) 12))))
(let ((?x3970 (ite (or (= ?x4035 4) (= ?x4035 6) (= ?x4035 9) (= ?x4035 11)) 30 31)))
(let (($x2818 (and (= (mod (div (- ?x4141 1) 12) 4) 0) (and (distinct (mod (div (- ?x4141 1) 12) 100) 0) true))))
(let (($x3628 (or $x2818 (= (mod (div (- ?x4141 1) 12) 400) 0))))
(let ((?x4128 (ite (= ?x4035 2) (ite $x3628 29 28) ?x3970)))
(let ((?x3858 (ite (> 1 ?x2330) 1 (ite (> ?x2330 ?x4128) ?x4128 ?x2330))))
(let ((?x2573 (ite (> 1 ?x3858) 1 (ite (> ?x3858 ?x4128) ?x4128 ?x3858))))
(let ((?x1752 (ite (= 2 ?x4035) (ite $x3628 31 31) (ite (= 1 ?x4035) (ite $x3628 0 0) 0))))
(let ((?x1098 (ite (= 4 ?x4035) (ite $x3628 91 90) (ite (= 3 ?x4035) (ite $x3628 60 59) ?x1752))))
(let ((?x3572 (ite (= 6 ?x4035) (ite $x3628 152 151) (ite (= 5 ?x4035) (ite $x3628 121 120) ?x1098))))
(let ((?x2224 (ite (= 8 ?x4035) (ite $x3628 213 212) (ite (= 7 ?x4035) (ite $x3628 182 181) ?x3572))))
(let ((?x1654 (ite (= 10 ?x4035) (ite $x3628 274 273) (ite (= 9 ?x4035) (ite $x3628 244 243) ?x2224))))
(let ((?x1633 (ite (= 12 ?x4035) (ite $x3628 335 334) (ite (= 11 ?x4035) (ite $x3628 305 304) ?x1654))))
(let ((?x2784 (+ (* 365 (- (div (- ?x4141 1) 12) 1)) (div (- (div (- ?x4141 1) 12) 1) 4))))
(let ((?x1824 (+ (- ?x2784 (div (- (div (- ?x4141 1) 12) 1) 100)) (div (- (div (- ?x4141 1) 12) 1) 400))))
(let ((?x3363 (+ (+ (- (+ (+ ?x1824 ?x1633) (- ?x2573 1)) 730179) 1) 730179)))
(let ((?x3320 (mod ?x3363 146097)))
(let ((?x3586 (div ?x3320 36524)))
(let ((?x3732 (ite (<= 4 ?x3586) 3 ?x3586)))
(let ((?x4163 (- ?x3320 (* ?x3732 36524))))
(let ((?x3540 (mod ?x4163 1461)))
(let ((?x894 (div ?x3540 365)))
(let ((?x3088 (ite (<= 4 ?x894) 3 ?x894)))
(let ((?x2843 (+ (+ (* (div ?x3363 146097) 400) (* ?x3732 100)) (* (div ?x4163 1461) 4))))
(let ((?x4274 (+ (+ ?x2843 ?x3088) 1)))
(let (($x4312 (or (and (= (mod ?x4274 4) 0) (and (distinct (mod ?x4274 100) 0) true)) (= (mod ?x4274 400) 0))))
(let ((?x1149 (- ?x3540 (* ?x3088 365))))
(let ((?x1713 (ite $x4312 31 31)))
(let (($x1103 (>= ?x1149 ?x1713)))
(let ((?x3182 (ite $x1103 (+ (- ?x1149 ?x1713) 1) (+ (- ?x1149 (ite $x4312 0 0)) 1))))
(let ((?x457 (ite $x4312 60 59)))
(let (($x1019 (>= ?x1149 ?x457)))
(let ((?x1190 (ite $x4312 91 90)))
(let (($x1320 (>= ?x1149 ?x1190)))
(let ((?x2804 (ite $x1320 (+ (- ?x1149 ?x1190) 1) (ite $x1019 (+ (- ?x1149 ?x457) 1) ?x3182))))
(let ((?x3997 (ite $x4312 121 120)))
(let (($x535 (>= ?x1149 ?x3997)))
(let ((?x1751 (ite $x4312 152 151)))
(let (($x2883 (>= ?x1149 ?x1751)))
(let ((?x2945 (ite $x2883 (+ (- ?x1149 ?x1751) 1) (ite $x535 (+ (- ?x1149 ?x3997) 1) ?x2804))))
(let ((?x3975 (ite $x4312 182 181)))
(let (($x2660 (>= ?x1149 ?x3975)))
(let ((?x3998 (ite $x4312 213 212)))
(let (($x4301 (>= ?x1149 ?x3998)))
(let ((?x2209 (ite $x4301 (+ (- ?x1149 ?x3998) 1) (ite $x2660 (+ (- ?x1149 ?x3975) 1) ?x2945))))
(let ((?x1583 (ite $x4312 244 243)))
(let (($x2158 (>= ?x1149 ?x1583)))
(let ((?x3201 (ite $x4312 274 273)))
(let (($x3744 (>= ?x1149 ?x3201)))
(let ((?x825 (ite $x3744 (+ (- ?x1149 ?x3201) 1) (ite $x2158 (+ (- ?x1149 ?x1583) 1) ?x2209))))
(let ((?x2366 (ite $x4312 305 304)))
(let (($x3932 (>= ?x1149 ?x2366)))
(let ((?x2649 (ite $x4312 335 334)))
(let (($x3768 (>= ?x1149 ?x2649)))
(let ((?x3475 (ite $x3768 (+ (- ?x1149 ?x2649) 1) (ite $x3932 (+ (- ?x1149 ?x2366) 1) ?x825))))
(let (($x490 (= 1 0)))
(let ((?x3046 (- (+ (* 2020 12) 3) 24003)))
(let ((?x1663 (ite $x535 5 (ite $x1320 4 (ite $x1019 3 (ite $x1103 2 1))))))
(let ((?x3911 (ite $x2158 9 (ite $x4301 8 (ite $x2660 7 (ite $x2883 6 ?x1663))))))
(let ((?x2108 (ite $x3768 12 (ite $x3932 11 (ite $x3744 10 ?x3911)))))
(let ((?x622 (+ (* (ite $x490 (div (- ?x4141 1) 12) ?x4274) 12) (ite $x490 ?x4035 ?x2108))))
(and (= (- ?x622 24003) ?x3046) (= 0 (- (ite $x490 ?x2573 ?x3475) 1)))))))))))))))))))))))))))))))))))))))))))))))))))))))))))))))))))
(check-sat)
